NAME : G100_1215_01
COMMENT : Generated CVRP instance (n=100)
TYPE : CVRP
DIMENSION : 101
EDGE_WEIGHT_TYPE : EUC_2D
CAPACITY : 18
NODE_COORD_SECTION
1    733  974 
2    958  538 
3    973  591 
4    978  724 
5    476  999 
6    993  160 
7    465  916 
8    732  439 
9    386  943 
10   884  939 
11   909  337 
12   609  835 
13   645  501 
14   735  477 
15   938  345 
16   993  354 
17   712  600 
18   398  983 
19   858  693 
20   956  408 
21   812  717 
22   430  789 
23   986  436 
24   728  448 
25   738  450 
26   407  887 
27   715  411 
28   490  912 
29   920  517 
30   713  423 
31   766  651 
32   742  651 
33   603  926 
34   897  543 
35   780  534 
36   769  513 
37   947  510 
38   728  642 
39   647  544 
40   838  566 
41   447  818 
42   764  400 
43   769  396 
44   741  471 
45   887  564 
46   360  898 
47   970  708 
48   678  362 
49   773  508 
50   846  611 
51   711  386 
52   421  886 
53   668  397 
54   722  432 
55   719  323 
56   572  484 
57   860  576 
58   814  588 
59   726  560 
60   611  692 
61   928  637 
62   810  639 
63   879  189 
64   920  327 
65   561  480 
66   635  460 
67   859  787 
68   876  684 
69   996  395 
70   748  364 
71   918  720 
72   783  376 
73   359  906 
74   845  433 
75   488  873 
76   736  419 
77   727  581 
78   785  662 
79   790  676 
80   714  620 
81   812  377 
82   342  885 
83   683  586 
84   706  289 
85   420  868 
86   641  742 
87   871  356 
88   548  916 
89   819  721 
90   461  857 
91   611  664 
92   752  496 
93   730  438 
94   903  628 
95   841  680 
96   474  914 
97   496  865 
98   496  929 
99   801  610 
100  727  487 
101  987  361 
DEMAND_SECTION
1    0   
2    1   
3    1   
4    1   
5    1   
6    1   
7    1   
8    1   
9    1   
10   1   
11   1   
12   1   
13   1   
14   1   
15   1   
16   1   
17   1   
18   1   
19   1   
20   1   
21   1   
22   1   
23   1   
24   1   
25   1   
26   1   
27   1   
28   1   
29   1   
30   1   
31   1   
32   1   
33   1   
34   1   
35   1   
36   1   
37   1   
38   1   
39   1   
40   1   
41   1   
42   1   
43   1   
44   1   
45   1   
46   1   
47   1   
48   1   
49   1   
50   1   
51   1   
52   1   
53   1   
54   1   
55   1   
56   1   
57   1   
58   1   
59   1   
60   1   
61   1   
62   1   
63   1   
64   1   
65   1   
66   1   
67   1   
68   1   
69   1   
70   1   
71   1   
72   1   
73   1   
74   1   
75   1   
76   1   
77   1   
78   1   
79   1   
80   1   
81   1   
82   1   
83   1   
84   1   
85   1   
86   1   
87   1   
88   1   
89   1   
90   1   
91   1   
92   1   
93   1   
94   1   
95   1   
96   1   
97   1   
98   1   
99   1   
100  1   
101  1   
DEPOT_SECTION
1
-1
EOF
